zaligvinder/models/all_counting_bench/automatarklen/automatark/instance7612.smt2
(set-logic QF_SLIA)
(set-option :produce-models true)
(declare-const X String)
; /\/AES\d+O\d+\.jsp\?[a-z0-9=\u{2b}\u{2f}]{20}/iU
(assert (str.in_re X (re.++ (str.to_re "//AES") (re.+ (re.range "0" "9")) (str.to_re "O") (re.+ (re.range "0" "9")) (str.to_re ".jsp?") ((_ re.loop 20 20) (re.union (re.range "a" "z") (re.range "0" "9") (str.to_re "=") (str.to_re "+") (str.to_re "/"))) (str.to_re "/iU\u{0a}"))))
; [^!~/><\|/#%():;{}`_-]
(assert (str.in_re X (re.++ (re.union (str.to_re "!") (str.to_re "~") (str.to_re "/") (str.to_re ">") (str.to_re "<") (str.to_re "|") (str.to_re "#") (str.to_re "%") (str.to_re "(") (str.to_re ")") (str.to_re ":") (str.to_re ";") (str.to_re "{") (str.to_re "}") (str.to_re "`") (str.to_re "_") (str.to_re "-")) (str.to_re "\u{0a}"))))
; :(6553[0-5]|655[0-2][0-9]\d|65[0-4](\d){2}|6[0-4](\d){3}|[1-5](\d){4}|[1-9](\d){0,3})
(assert (not (str.in_re X (re.++ (str.to_re ":") (re.union (re.++ (str.to_re "6553") (re.range "0" "5")) (re.++ (str.to_re "655") (re.range "0" "2") (re.range "0" "9") (re.range "0" "9")) (re.++ (str.to_re "65") (re.range "0" "4") ((_ re.loop 2 2) (re.range "0" "9"))) (re.++ (str.to_re "6") (re.range "0" "4") ((_ re.loop 3 3) (re.range "0" "9"))) (re.++ (re.range "1" "5") ((_ re.loop 4 4) (re.range "0" "9"))) (re.++ (re.range "1" "9") ((_ re.loop 0 3) (re.range "0" "9")))) (str.to_re "\u{0a}")))))
; \x2Fcs\x2Fpop4\x2FUser-Agent\x3Akitwww\x2Eborlander\x2Ecom\x2Ecn
(assert (str.in_re X (str.to_re "/cs/pop4/User-Agent:kitwww.borlander.com.cn\u{0a}")))
; ^((8|\+38)-?)?(\(?044\)?)?-?\d{3}-?\d{2}-?\d{2}$
(assert (str.in_re X (re.++ (re.opt (re.++ (re.union (str.to_re "8") (str.to_re "+38")) (re.opt (str.to_re "-")))) (re.opt (re.++ (re.opt (str.to_re "(")) (str.to_re "044") (re.opt (str.to_re ")")))) (re.opt (str.to_re "-")) ((_ re.loop 3 3) (re.range "0" "9")) (re.opt (str.to_re "-")) ((_ re.loop 2 2) (re.range "0" "9")) (re.opt (str.to_re "-")) ((_ re.loop 2 2) (re.range "0" "9")) (str.to_re "\u{0a}"))))
(assert (> (str.len X) 10))
(check-sat)
